50	
22924	
14839	
265	825
58	51
424	1320
406	357
580	510
159	495
232	204
290	255
530	1650
464	408
265	825
406	357
290	255
58	51
159	495
159	495
174	153
522	459
464	408
522	459
53	165
522	459
464	408
424	1320
318	990
348	306
406	357
477	1485
106	330
265	825
212	660
174	153
580	510
318	990
530	1650
290	255
318	990
406	357
212	660
580	510
371	1155
477	1485
212	660
348	306
464	408
53	165
464	408
580	510
530	1650
348	306